NAME : bier127.opt.tour
COMMENT : 123259.70829759  #   Population: 100   Iteration: 1000   Elitism Ratio: 0.1   Mutation Ratio: 0.09   Crossover Ratio: 0.95
TYPE : TOUR
DIMENSION : 127
TOUR_SECTION
1
7
16
2
51
121
57
54
44
45
103
48
53
118
49
47
46
94
112
111
107
127
93
95
123
97
98
101
102
63
119
96
109
86
88
87
85
110
104
125
89
92
99
65
113
66
55
124
52
56
5
50
115
13
120
10
3
100
58
64
91
61
62
59
60
116
90
11
9
24
4
22
19
72
8
23
108
6
106
105
114
15
20
17
21
18
77
74
73
67
68
71
70
69
75
76
78
117
84
81
126
82
83
32
29
28
122
33
25
80
79
31
27
26
38
39
34
42
43
40
35
37
36
41
30
12
14
-1
EOF
